language ESSENCE' 1.0

letting jobs = 102
letting horizon = 810
letting resourcesRenew = 2
letting resourcesNonrenew = 2
letting resourceLimits = [18, 17, 300, 255]
letting successors = [[2, 3, 4, 5, 6, 7, 8, 10, 12, 13, 15, 18, 20, 23, 31], [41, 39, 35, 34, 33, 29, 28, 25, 24, 22, 21, 19, 17, 11], [41, 35, 29, 27, 22, 14], [69, 49, 47, 44, 40, 37, 36, 9], [44, 40, 36, 35, 33, 32, 9], [48, 47, 45, 43, 42, 40, 39, 38, 35, 32, 30, 28], [69, 49, 45, 43, 36, 28, 16], [69, 58, 57, 56, 49, 48, 47, 44, 42, 40, 38, 37, 36, 27], [68, 57, 56, 54, 53, 52, 51, 45, 34, 27], [75, 69, 59, 58, 57, 51, 49, 48, 46, 44, 43, 40, 28], [57, 56, 54, 52, 51, 47, 42, 40, 38, 27], [59, 58, 52, 48, 45, 43, 42, 39, 35, 32], [79, 69, 57, 56, 52, 46, 40, 38, 36, 34], [69, 57, 51, 49, 47, 44, 40, 37, 34], [69, 59, 57, 49, 48, 41, 40, 33, 26], [59, 57, 56, 52, 40, 35, 34], [75, 66, 58, 53, 52, 48, 47, 45, 43, 37, 36], [75, 70, 69, 68, 62, 56, 49, 48, 45, 42, 30], [69, 60, 56, 48, 43, 40, 26], [59, 57, 53, 52, 51, 35, 34], [69, 57, 49, 48, 44, 26], [75, 69, 61, 58, 57, 53, 52, 48, 44, 37, 36], [79, 69, 68, 59, 58, 48, 46, 42, 40], [73, 70, 69, 57, 56, 53, 52, 44, 42, 37], [100, 79, 61, 58, 57, 48, 38, 36], [99, 79, 75, 68, 58, 54, 53, 52, 51, 42], [75, 70, 63, 62, 59, 50, 46, 43], [101, 100, 68, 66, 63, 62, 61, 60, 55, 54, 53, 50], [100, 75, 70, 67, 62, 61, 60, 58, 57, 53, 45], [67, 65, 64, 63, 59, 58, 57, 55, 46], [100, 99, 73, 70, 66, 54, 52, 44], [100, 75, 67, 63, 62, 57, 51, 49], [100, 99, 75, 74, 64, 62, 60, 54, 51], [101, 75, 58, 48, 42], [101, 96, 68, 65, 63, 55, 46], [99, 74, 71, 63, 62, 54, 51], [101, 100, 99, 97, 96, 94, 79, 64, 63, 62, 54], [96, 93, 90, 78, 75, 67, 65, 64, 63, 60, 59], [101, 100, 99, 98, 97, 94, 93, 92, 87, 79, 78, 77, 73, 71, 70, 69, 62], [100, 99, 98, 97, 78, 73, 70, 67, 62, 53], [100, 98, 97, 96, 95, 94, 93, 92, 87, 83, 79, 77, 73, 71, 62], [100, 97, 96, 95, 94, 91, 90, 89, 78, 74, 67, 66, 65, 64], [100, 99, 98, 96, 93, 92, 89, 87, 77, 65, 55], [96, 95, 93, 92, 89, 77, 74, 65, 64, 55], [101, 99, 98, 97, 96, 95, 94, 93, 92, 91, 89, 87, 86, 85, 83, 79, 78, 77, 76, 74, 73, 71], [100, 99, 97, 95, 94, 92, 74, 61, 60], [100, 99, 97, 92, 78, 68, 61, 60], [99, 96, 94, 93, 92, 91, 90, 88, 78, 76, 73, 64, 63], [98, 96, 94, 93, 90, 89, 78, 64, 60], [99, 95, 94, 93, 91, 90, 85, 78, 76, 74, 67, 64], [101, 97, 94, 92, 91, 90, 89, 88, 85, 73, 72, 70], [101, 94, 93, 92, 88, 87, 83, 62], [96, 95, 94, 93, 92, 90, 89, 88, 86, 85, 83, 72, 71], [98, 95, 93, 90, 89, 86, 85, 84, 78, 72, 67], [97, 94, 91, 90, 86, 85, 83, 79, 78, 72, 71], [100, 96, 93, 90, 89, 88, 78, 76, 64], [101, 97, 90, 89, 88, 87, 86, 85, 84, 83, 74, 72], [96, 95, 93, 92, 91, 88, 87, 86, 83, 80, 78, 76, 74], [101, 99, 97, 94, 88, 85, 84, 83, 81, 77, 72], [91, 88, 87, 86, 85, 83, 81, 77, 76, 73], [93, 90, 89, 85, 83, 72, 71], [91, 90, 89, 84, 65], [98, 95, 89, 87, 86, 85, 84, 83, 82, 81, 80], [87, 86, 83, 82, 71], [86, 85, 81, 72], [92, 88, 85, 84, 83, 80], [92, 87, 82, 81, 77], [89, 85, 83, 81, 77], [95, 91, 90, 83, 81], [96, 95, 86, 83], [84, 81, 80], [80, 76], [84, 82], [82, 81], [87, 80], [82], [80], [81], [88], [102], [102], [102], [102], [102], [102], [102], [102], [102], [102], [102], [102], [102], [102], [102], [102], [102], [102], [102], [102], [102], [102], []]
letting durations = [[0], [4, 5, 5], [2, 3, 9], [2, 9, 10], [1, 3, 6], [1, 4, 6], [4, 9, 10], [1, 2, 10], [3, 8, 9], [4, 6, 6], [5, 7, 8], [2, 3, 4], [2, 5, 7], [4, 6, 7], [5, 8, 10], [1, 4, 9], [7, 9, 10], [5, 7, 8], [1, 3, 4], [3, 7, 8], [1, 3, 8], [3, 7, 8], [1, 2, 9], [6, 6, 7], [2, 6, 10], [1, 5, 9], [5, 6, 8], [6, 8, 9], [3, 5, 7], [1, 4, 10], [1, 4, 6], [7, 7, 9], [1, 4, 5], [2, 4, 5], [3, 4, 10], [7, 8, 9], [3, 6, 6], [2, 4, 5], [1, 9, 10], [4, 5, 9], [1, 5, 8], [2, 6, 8], [2, 3, 9], [5, 6, 7], [7, 8, 10], [1, 7, 10], [2, 3, 4], [6, 7, 9], [2, 3, 8], [4, 6, 10], [1, 3, 8], [5, 8, 10], [7, 9, 9], [5, 6, 9], [1, 3, 9], [3, 6, 8], [3, 4, 9], [1, 2, 5], [3, 5, 9], [2, 7, 7], [8, 9, 10], [3, 6, 10], [1, 7, 8], [3, 5, 7], [2, 6, 9], [3, 4, 8], [1, 10, 10], [1, 7, 9], [1, 5, 7], [2, 3, 8], [2, 3, 9], [3, 5, 10], [3, 5, 5], [4, 5, 8], [9, 9, 10], [2, 5, 8], [5, 9, 10], [3, 4, 8], [1, 3, 10], [3, 7, 9], [4, 6, 8], [4, 6, 6], [5, 6, 9], [1, 3, 4], [7, 8, 10], [4, 5, 6], [3, 4, 10], [4, 6, 9], [3, 4, 10], [3, 5, 8], [1, 2, 4], [8, 8, 9], [2, 7, 10], [1, 4, 7], [2, 3, 8], [3, 6, 9], [3, 5, 9], [6, 8, 9], [3, 3, 4], [4, 10, 10], [1, 3, 7], [0]]
letting resourceUsage = [[[0, 0, 0, 0]], [[3, 2, 0, 4], [3, 2, 4, 0], [1, 2, 0, 4]], [[2, 5, 5, 0], [2, 4, 5, 0], [2, 2, 2, 0]], [[1, 1, 0, 9], [1, 1, 2, 0], [1, 1, 0, 8]], [[2, 1, 2, 0], [2, 1, 1, 0], [1, 1, 2, 0]], [[3, 2, 0, 8], [2, 1, 0, 4], [2, 1, 6, 0]], [[4, 3, 0, 6], [4, 3, 1, 0], [4, 1, 0, 6]], [[5, 2, 6, 0], [3, 1, 6, 0], [3, 1, 5, 0]], [[4, 2, 0, 7], [2, 1, 9, 0], [2, 1, 8, 0]], [[4, 5, 0, 10], [3, 5, 8, 0], [2, 5, 0, 5]], [[4, 4, 5, 0], [4, 4, 4, 0], [2, 4, 0, 3]], [[4, 2, 0, 3], [3, 2, 0, 2], [3, 2, 0, 1]], [[3, 2, 0, 4], [3, 2, 5, 0], [3, 1, 0, 3]], [[3, 3, 2, 0], [3, 2, 1, 0], [1, 2, 1, 0]], [[3, 4, 0, 6], [2, 3, 7, 0], [1, 3, 5, 0]], [[4, 2, 8, 0], [4, 2, 6, 0], [4, 2, 0, 3]], [[4, 5, 0, 8], [3, 4, 3, 0], [3, 4, 2, 0]], [[4, 3, 6, 0], [3, 3, 0, 2], [1, 2, 4, 0]], [[4, 1, 9, 0], [3, 1, 9, 0], [3, 1, 8, 0]], [[4, 3, 10, 0], [4, 2, 0, 7], [4, 1, 3, 0]], [[5, 5, 8, 0], [5, 2, 7, 0], [5, 2, 0, 4]], [[3, 4, 0, 8], [2, 3, 0, 7], [2, 3, 0, 6]], [[4, 3, 7, 0], [4, 3, 0, 4], [2, 3, 6, 0]], [[4, 5, 0, 8], [2, 4, 8, 0], [2, 4, 7, 0]], [[5, 4, 0, 6], [5, 3, 0, 6], [5, 3, 5, 0]], [[2, 3, 9, 0], [1, 3, 0, 5], [1, 2, 0, 4]], [[3, 3, 0, 5], [2, 2, 0, 5], [2, 1, 0, 4]], [[3, 3, 0, 7], [3, 2, 0, 7], [2, 2, 0, 5]], [[2, 5, 0, 5], [2, 4, 3, 0], [2, 4, 2, 0]], [[2, 5, 0, 10], [1, 4, 6, 0], [1, 4, 4, 0]], [[3, 4, 8, 0], [3, 4, 7, 0], [1, 4, 8, 0]], [[4, 2, 5, 0], [4, 2, 0, 5], [4, 2, 3, 0]], [[3, 4, 0, 8], [2, 3, 0, 5], [2, 1, 5, 0]], [[4, 3, 8, 0], [4, 2, 8, 0], [4, 1, 8, 0]], [[4, 3, 0, 9], [4, 3, 0, 7], [3, 3, 4, 0]], [[2, 4, 0, 6], [2, 3, 0, 6], [2, 2, 0, 3]], [[4, 5, 0, 9], [4, 5, 0, 7], [2, 5, 3, 0]], [[4, 5, 9, 0], [3, 4, 8, 0], [2, 3, 0, 10]], [[4, 4, 6, 0], [4, 4, 0, 6], [4, 4, 5, 0]], [[4, 2, 0, 8], [4, 2, 4, 0], [3, 2, 0, 4]], [[2, 4, 0, 8], [2, 2, 8, 0], [2, 2, 0, 7]], [[5, 5, 8, 0], [5, 4, 0, 5], [5, 3, 0, 5]], [[2, 4, 4, 0], [2, 4, 0, 2], [2, 3, 1, 0]], [[5, 4, 0, 7], [4, 3, 4, 0], [4, 3, 0, 3]], [[5, 5, 1, 0], [4, 3, 1, 0], [3, 1, 1, 0]], [[3, 5, 0, 8], [3, 4, 0, 6], [2, 3, 0, 6]], [[5, 3, 0, 3], [4, 3, 0, 2], [2, 3, 0, 2]], [[5, 5, 3, 0], [5, 5, 0, 9], [5, 5, 2, 0]], [[4, 3, 4, 0], [4, 3, 3, 0], [4, 1, 2, 0]], [[3, 3, 9, 0], [1, 3, 7, 0], [1, 2, 0, 3]], [[5, 3, 8, 0], [2, 3, 0, 3], [2, 3, 0, 2]], [[3, 5, 6, 0], [2, 3, 0, 6], [1, 2, 3, 0]], [[3, 5, 8, 0], [1, 4, 5, 0], [1, 2, 0, 2]], [[2, 2, 7, 0], [2, 2, 0, 6], [1, 2, 0, 6]], [[4, 3, 9, 0], [4, 3, 8, 0], [4, 2, 0, 8]], [[3, 4, 6, 0], [2, 3, 0, 7], [2, 2, 4, 0]], [[4, 4, 0, 3], [3, 3, 7, 0], [3, 2, 0, 2]], [[4, 3, 8, 0], [4, 2, 0, 5], [3, 2, 0, 5]], [[2, 3, 6, 0], [1, 3, 6, 0], [1, 2, 5, 0]], [[2, 3, 6, 0], [2, 3, 0, 7], [2, 2, 3, 0]], [[3, 3, 7, 0], [3, 3, 5, 0], [3, 1, 5, 0]], [[5, 5, 9, 0], [4, 4, 0, 4], [3, 3, 9, 0]], [[4, 3, 5, 0], [2, 3, 0, 5], [2, 3, 0, 4]], [[5, 4, 0, 5], [4, 3, 7, 0], [4, 1, 5, 0]], [[5, 3, 3, 0], [4, 3, 2, 0], [2, 3, 0, 1]], [[3, 4, 3, 0], [3, 3, 3, 0], [3, 3, 2, 0]], [[2, 3, 8, 0], [1, 3, 0, 10], [1, 3, 7, 0]], [[1, 5, 6, 0], [1, 3, 0, 2], [1, 3, 5, 0]], [[2, 4, 0, 10], [1, 4, 0, 9], [1, 4, 2, 0]], [[1, 5, 0, 8], [1, 4, 2, 0], [1, 4, 1, 0]], [[5, 4, 8, 0], [4, 3, 0, 4], [3, 2, 4, 0]], [[5, 2, 0, 7], [4, 2, 4, 0], [2, 2, 0, 5]], [[5, 1, 7, 0], [3, 1, 6, 0], [3, 1, 0, 2]], [[4, 4, 10, 0], [4, 3, 9, 0], [4, 2, 8, 0]], [[4, 3, 0, 8], [4, 2, 5, 0], [3, 2, 5, 0]], [[2, 4, 6, 0], [1, 4, 0, 5], [1, 4, 5, 0]], [[1, 3, 8, 0], [1, 3, 5, 0], [1, 3, 2, 0]], [[4, 3, 0, 9], [4, 1, 0, 8], [2, 1, 0, 8]], [[5, 5, 7, 0], [5, 4, 7, 0], [5, 3, 7, 0]], [[5, 4, 3, 0], [4, 3, 0, 7], [3, 3, 0, 7]], [[4, 4, 5, 0], [4, 4, 0, 6], [3, 4, 0, 6]], [[3, 1, 6, 0], [3, 1, 0, 4], [2, 1, 6, 0]], [[2, 4, 0, 9], [2, 2, 0, 7], [2, 2, 4, 0]], [[4, 3, 0, 10], [2, 3, 2, 0], [2, 3, 0, 9]], [[5, 4, 8, 0], [4, 3, 7, 0], [4, 3, 6, 0]], [[5, 5, 0, 3], [4, 3, 0, 2], [3, 2, 1, 0]], [[4, 5, 3, 0], [2, 4, 3, 0], [2, 2, 3, 0]], [[4, 4, 4, 0], [3, 2, 0, 1], [2, 1, 0, 1]], [[4, 4, 7, 0], [4, 3, 0, 4], [4, 1, 1, 0]], [[4, 3, 0, 8], [3, 1, 0, 6], [3, 1, 7, 0]], [[2, 5, 4, 0], [2, 3, 3, 0], [1, 2, 0, 4]], [[2, 1, 0, 8], [2, 1, 4, 0], [2, 1, 3, 0]], [[4, 5, 0, 2], [4, 4, 2, 0], [3, 4, 0, 2]], [[3, 5, 8, 0], [3, 5, 0, 6], [1, 5, 0, 5]], [[3, 4, 0, 5], [2, 2, 0, 5], [1, 1, 0, 4]], [[4, 4, 7, 0], [2, 4, 0, 6], [2, 4, 0, 3]], [[3, 3, 10, 0], [2, 2, 9, 0], [2, 2, 8, 0]], [[4, 2, 9, 0], [4, 1, 0, 1], [3, 1, 0, 1]], [[4, 2, 4, 0], [2, 1, 0, 4], [2, 1, 4, 0]], [[4, 4, 0, 3], [3, 3, 0, 1], [1, 2, 1, 0]], [[2, 4, 2, 0], [2, 4, 0, 6], [2, 2, 2, 0]], [[0, 0, 0, 0]]]
